p edge 480 1920
e 1 90
e 1 307
e 1 363
e 1 456
e 2 45
e 2 115
e 2 119
e 2 300
e 3 59
e 3 300
e 3 320
e 3 329
e 4 82
e 4 167
e 4 236
e 4 382
e 5 118
e 5 262
e 5 297
e 5 410
e 6 79
e 6 84
e 6 304
e 6 426
e 7 40
e 7 142
e 7 332
e 7 361
e 8 86
e 8 154
e 8 383
e 8 419
e 9 22
e 9 273
e 9 297
e 9 428
e 10 32
e 10 62
e 10 264
e 10 362
e 11 37
e 11 61
e 11 308
e 11 442
e 12 22
e 12 81
e 12 247
e 12 336
e 13 137
e 13 266
e 13 281
e 13 351
e 14 264
e 14 304
e 14 328
e 14 388
e 15 76
e 15 233
e 15 409
e 15 434
e 16 62
e 16 155
e 16 408
e 16 469
e 17 95
e 17 131
e 17 145
e 17 168
e 18 26
e 18 321
e 18 422
e 18 455
e 19 141
e 19 214
e 19 231
e 19 280
e 20 74
e 20 208
e 20 447
e 20 448
e 21 110
e 21 137
e 21 231
e 21 380
e 22 65
e 22 317
e 22 366
e 22 401
e 23 57
e 23 145
e 23 443
e 23 455
e 24 278
e 24 297
e 24 381
e 24 384
e 25 31
e 25 77
e 25 185
e 25 331
e 26 152
e 26 246
e 26 310
e 26 479
e 27 178
e 27 263
e 27 441
e 27 445
e 28 90
e 28 288
e 28 346
e 28 382
e 29 58
e 29 263
e 29 439
e 29 467
e 30 70
e 30 327
e 30 407
e 30 434
e 31 29
e 31 143
e 31 333
e 31 393
e 32 18
e 32 93
e 32 252
e 32 253
e 33 109
e 33 182
e 33 387
e 33 441
e 34 278
e 34 337
e 34 415
e 34 437
e 35 13
e 35 212
e 35 354
e 35 465
e 36 114
e 36 131
e 36 271
e 36 377
e 37 75
e 37 110
e 37 393
e 37 424
e 38 72
e 38 151
e 38 256
e 38 292
e 39 157
e 39 205
e 39 349
e 39 382
e 40 15
e 40 259
e 40 291
e 40 308
e 41 117
e 41 209
e 41 320
e 41 433
e 42 77
e 42 172
e 42 218
e 42 301
e 43 37
e 43 297
e 43 313
e 43 410
e 44 207
e 44 243
e 44 323
e 44 350
e 45 178
e 45 406
e 45 432
e 45 453
e 46 191
e 46 328
e 46 371
e 46 392
e 47 193
e 47 335
e 47 402
e 47 424
e 48 213
e 48 246
e 48 457
e 48 462
e 49 10
e 49 48
e 49 192
e 49 434
e 50 24
e 50 244
e 50 301
e 50 417
e 51 1
e 51 196
e 51 344
e 51 459
e 52 144
e 52 209
e 52 387
e 52 397
e 53 29
e 53 75
e 53 180
e 53 310
e 54 189
e 54 310
e 54 374
e 54 424
e 55 36
e 55 250
e 55 300
e 55 474
e 56 187
e 56 211
e 56 400
e 56 467
e 57 108
e 57 248
e 57 265
e 57 417
e 58 53
e 58 193
e 58 224
e 58 270
e 59 18
e 59 72
e 59 143
e 59 279
e 60 133
e 60 302
e 60 315
e 60 369
e 61 165
e 61 200
e 61 315
e 61 326
e 62 43
e 62 344
e 62 344
e 62 424
e 63 18
e 63 43
e 63 72
e 63 99
e 64 196
e 64 253
e 64 289
e 64 314
e 65 289
e 65 307
e 65 460
e 65 466
e 66 62
e 66 68
e 66 147
e 66 362
e 67 1
e 67 238
e 67 333
e 67 478
e 68 96
e 68 267
e 68 313
e 68 416
e 69 25
e 69 31
e 69 238
e 69 417
e 70 72
e 70 238
e 70 267
e 70 394
e 71 46
e 71 69
e 71 259
e 71 275
e 72 112
e 72 218
e 72 245
e 72 301
e 73 107
e 73 108
e 73 244
e 73 280
e 74 17
e 74 23
e 74 420
e 74 432
e 75 14
e 75 118
e 75 177
e 75 311
e 76 162
e 76 191
e 76 195
e 76 351
e 77 48
e 77 193
e 77 223
e 77 223
e 78 92
e 78 232
e 78 318
e 78 419
e 79 128
e 79 230
e 79 354
e 79 427
e 80 19
e 80 41
e 80 149
e 80 166
e 81 86
e 81 185
e 81 277
e 81 403
e 82 69
e 82 155
e 82 202
e 82 449
e 83 26
e 83 158
e 83 213
e 83 310
e 84 204
e 84 229
e 84 265
e 84 301
e 85 76
e 85 277
e 85 386
e 85 403
e 86 66
e 86 67
e 86 164
e 86 471
e 87 288
e 87 289
e 87 390
e 87 470
e 88 31
e 88 124
e 88 141
e 88 380
e 89 1
e 89 138
e 89 268
e 89 348
e 90 166
e 90 286
e 90 295
e 90 308
e 91 185
e 91 265
e 91 376
e 91 440
e 92 321
e 92 333
e 92 339
e 92 381
e 93 58
e 93 168
e 93 184
e 93 301
e 94 33
e 94 194
e 94 243
e 94 442
e 95 133
e 95 142
e 95 148
e 95 421
e 96 86
e 96 150
e 96 207
e 96 281
e 97 14
e 97 65
e 97 272
e 97 374
e 98 101
e 98 145
e 98 181
e 98 396
e 99 17
e 99 264
e 99 322
e 99 478
e 100 78
e 100 156
e 100 182
e 100 461
e 101 13
e 101 161
e 101 262
e 101 303
e 102 114
e 102 211
e 102 297
e 102 393
e 103 98
e 103 155
e 103 286
e 103 451
e 104 36
e 104 76
e 104 191
e 104 194
e 105 177
e 105 195
e 105 257
e 105 436
e 106 255
e 106 383
e 106 455
e 106 476
e 107 60
e 107 141
e 107 228
e 107 267
e 108 56
e 108 240
e 108 305
e 108 319
e 109 160
e 109 319
e 109 321
e 109 467
e 110 13
e 110 58
e 110 268
e 110 337
e 111 38
e 111 173
e 111 305
e 111 401
e 112 51
e 112 307
e 112 386
e 112 469
e 113 51
e 113 144
e 113 192
e 113 315
e 114 183
e 114 254
e 114 285
e 114 337
e 115 165
e 115 193
e 115 256
e 115 448
e 116 114
e 116 139
e 116 369
e 116 443
e 117 16
e 117 101
e 117 126
e 117 199
e 118 23
e 118 156
e 118 420
e 118 439
e 119 83
e 119 180
e 119 344
e 119 451
e 120 200
e 120 274
e 120 463
e 120 464
e 121 89
e 121 110
e 121 155
e 121 413
e 122 16
e 122 32
e 122 224
e 122 334
e 123 31
e 123 111
e 123 157
e 123 346
e 124 23
e 124 239
e 124 282
e 124 302
e 125 75
e 125 215
e 125 403
e 125 450
e 126 62
e 126 103
e 126 328
e 126 395
e 127 132
e 127 198
e 127 357
e 127 470
e 128 17
e 128 38
e 128 154
e 128 458
e 129 36
e 129 100
e 129 369
e 129 397
e 130 245
e 130 302
e 130 367
e 130 441
e 131 70
e 131 177
e 131 269
e 131 350
e 132 25
e 132 30
e 132 101
e 132 376
e 133 97
e 133 141
e 133 263
e 133 318
e 134 145
e 134 165
e 134 314
e 134 340
e 135 74
e 135 178
e 135 261
e 135 404
e 136 49
e 136 175
e 136 198
e 136 396
e 137 38
e 137 51
e 137 131
e 137 415
e 138 55
e 138 115
e 138 262
e 138 380
e 139 26
e 139 288
e 139 293
e 139 296
e 140 48
e 140 55
e 140 270
e 140 406
e 141 8
e 141 134
e 141 276
e 141 446
e 142 43
e 142 77
e 142 441
e 142 476
e 143 8
e 143 49
e 143 102
e 143 306
e 144 23
e 144 321
e 144 342
e 144 367
e 145 101
e 145 144
e 145 226
e 145 265
e 146 147
e 146 172
e 146 188
e 146 335
e 147 198
e 147 220
e 147 437
e 147 465
e 148 97
e 148 119
e 148 257
e 148 335
e 149 171
e 149 183
e 149 265
e 149 278
e 150 191
e 150 208
e 150 252
e 150 325
e 151 221
e 151 333
e 151 466
e 151 477
e 152 320
e 152 380
e 152 409
e 152 443
e 153 77
e 153 310
e 153 330
e 153 457
e 154 216
e 154 317
e 154 419
e 154 429
e 155 29
e 155 75
e 155 202
e 155 313
e 156 2
e 156 4
e 156 167
e 156 409
e 157 148
e 157 223
e 157 226
e 157 266
e 158 217
e 158 235
e 158 352
e 158 384
e 159 54
e 159 181
e 159 186
e 159 398
e 160 134
e 160 322
e 160 360
e 160 377
e 161 32
e 161 130
e 161 229
e 161 288
e 162 30
e 162 146
e 162 369
e 162 444
e 163 39
e 163 145
e 163 268
e 163 359
e 164 333
e 164 345
e 164 346
e 164 446
e 165 60
e 165 150
e 165 155
e 165 362
e 166 154
e 166 229
e 166 235
e 166 339
e 167 57
e 167 158
e 167 248
e 167 254
e 168 423
e 168 463
e 168 471
e 168 471
e 169 48
e 169 198
e 169 353
e 169 397
e 170 50
e 170 250
e 170 287
e 170 369
e 171 35
e 171 51
e 171 146
e 171 272
e 172 15
e 172 32
e 172 365
e 172 375
e 173 82
e 173 159
e 173 276
e 173 299
e 174 12
e 174 26
e 174 35
e 174 314
e 175 189
e 175 245
e 175 380
e 175 471
e 176 12
e 176 12
e 176 418
e 176 479
e 177 124
e 177 165
e 177 373
e 177 447
e 178 114
e 178 261
e 178 281
e 178 285
e 179 33
e 179 153
e 179 275
e 179 330
e 180 99
e 180 191
e 180 349
e 180 401
e 181 64
e 181 73
e 181 112
e 181 116
e 182 95
e 182 163
e 182 362
e 182 420
e 183 49
e 183 67
e 183 157
e 183 394
e 184 79
e 184 182
e 184 300
e 184 317
e 185 9
e 185 44
e 185 207
e 185 442
e 186 56
e 186 78
e 186 147
e 186 298
e 187 92
e 187 216
e 187 264
e 187 428
e 188 72
e 188 376
e 188 396
e 188 477
e 189 43
e 189 185
e 189 245
e 189 290
e 190 52
e 190 105
e 190 218
e 190 343
e 191 10
e 191 71
e 191 217
e 191 330
e 192 212
e 192 251
e 192 426
e 192 438
e 193 40
e 193 299
e 193 368
e 193 407
e 194 249
e 194 305
e 194 350
e 194 422
e 195 125
e 195 211
e 195 337
e 195 368
e 196 5
e 196 274
e 196 288
e 196 392
e 197 236
e 197 302
e 197 356
e 197 431
e 198 123
e 198 307
e 198 347
e 198 437
e 199 165
e 199 229
e 199 352
e 199 363
e 200 116
e 200 209
e 200 270
e 200 452
e 201 64
e 201 330
e 201 334
e 201 358
e 202 107
e 202 128
e 202 179
e 202 279
e 203 54
e 203 190
e 203 262
e 203 298
e 204 15
e 204 66
e 204 150
e 204 412
e 205 11
e 205 148
e 205 377
e 205 443
e 206 299
e 206 367
e 206 418
e 206 436
e 207 60
e 207 63
e 207 83
e 207 253
e 208 16
e 208 241
e 208 304
e 208 310
e 209 15
e 209 239
e 209 432
e 209 475
e 210 117
e 210 203
e 210 226
e 210 319
e 211 44
e 211 258
e 211 284
e 211 427
e 212 7
e 212 322
e 212 436
e 212 477
e 213 6
e 213 113
e 213 259
e 213 383
e 214 172
e 214 269
e 214 280
e 214 303
e 215 240
e 215 242
e 215 279
e 215 283
e 216 37
e 216 278
e 216 388
e 216 412
e 217 96
e 217 215
e 217 279
e 217 366
e 218 149
e 218 195
e 218 399
e 218 463
e 219 93
e 219 120
e 219 147
e 219 389
e 220 59
e 220 135
e 220 255
e 220 318
e 221 93
e 221 136
e 221 264
e 221 329
e 222 10
e 222 133
e 222 136
e 222 270
e 223 275
e 223 329
e 223 391
e 223 414
e 224 62
e 224 104
e 224 106
e 224 449
e 225 142
e 225 175
e 225 208
e 225 372
e 226 43
e 226 115
e 226 458
e 226 473
e 227 79
e 227 100
e 227 329
e 227 344
e 228 175
e 228 409
e 228 410
e 228 477
e 229 29
e 229 136
e 229 257
e 229 428
e 230 32
e 230 88
e 230 122
e 230 434
e 231 74
e 231 217
e 231 311
e 231 476
e 232 4
e 232 358
e 232 359
e 232 447
e 233 99
e 233 152
e 233 204
e 233 458
e 234 120
e 234 148
e 234 307
e 234 361
e 235 37
e 235 71
e 235 200
e 235 422
e 236 113
e 236 116
e 236 314
e 236 389
e 237 8
e 237 35
e 237 93
e 237 191
e 238 31
e 238 104
e 238 237
e 238 308
e 239 7
e 239 110
e 239 160
e 239 266
e 240 4
e 240 57
e 240 63
e 240 259
e 241 11
e 241 58
e 241 89
e 241 215
e 242 49
e 242 55
e 242 99
e 242 413
e 243 9
e 243 25
e 243 358
e 243 457
e 244 79
e 244 187
e 244 385
e 244 480
e 245 135
e 245 198
e 245 257
e 245 472
e 246 42
e 246 185
e 246 191
e 246 369
e 247 24
e 247 150
e 247 348
e 247 432
e 248 58
e 248 60
e 248 272
e 248 457
e 249 197
e 249 386
e 249 438
e 249 441
e 250 15
e 250 120
e 250 248
e 250 455
e 251 54
e 251 64
e 251 111
e 251 377
e 252 48
e 252 111
e 252 470
e 252 475
e 253 15
e 253 28
e 253 323
e 253 396
e 254 162
e 254 271
e 254 323
e 254 404
e 255 314
e 255 444
e 255 462
e 255 469
e 256 24
e 256 45
e 256 239
e 256 435
e 257 1
e 257 194
e 257 399
e 257 479
e 258 43
e 258 219
e 258 302
e 258 329
e 259 289
e 259 362
e 259 391
e 259 480
e 260 14
e 260 78
e 260 280
e 260 292
e 261 84
e 261 262
e 261 333
e 261 405
e 262 257
e 262 315
e 262 340
e 262 408
e 263 102
e 263 329
e 263 372
e 263 451
e 264 293
e 264 343
e 264 364
e 264 377
e 265 94
e 265 134
e 265 359
e 265 478
e 266 21
e 266 117
e 266 306
e 266 474
e 267 38
e 267 115
e 267 132
e 267 292
e 268 140
e 268 232
e 268 417
e 268 472
e 269 160
e 269 170
e 269 274
e 269 428
e 270 99
e 270 119
e 270 128
e 270 145
e 271 43
e 271 159
e 271 197
e 271 431
e 272 137
e 272 239
e 272 292
e 272 382
e 273 163
e 273 231
e 273 239
e 273 420
e 274 13
e 274 135
e 274 391
e 274 445
e 275 13
e 275 203
e 275 223
e 275 450
e 276 73
e 276 80
e 276 129
e 276 315
e 277 116
e 277 289
e 277 353
e 277 445
e 278 256
e 278 404
e 278 454
e 278 456
e 279 3
e 279 121
e 279 395
e 279 445
e 280 83
e 280 175
e 280 214
e 280 265
e 281 295
e 281 312
e 281 474
e 281 478
e 282 107
e 282 134
e 282 165
e 282 379
e 283 1
e 283 46
e 283 271
e 283 342
e 284 318
e 284 381
e 284 401
e 284 436
e 285 31
e 285 34
e 285 35
e 285 287
e 286 48
e 286 103
e 286 182
e 286 474
e 287 48
e 287 67
e 287 346
e 287 460
e 288 35
e 288 193
e 288 217
e 288 323
e 289 105
e 289 109
e 289 310
e 289 313
e 290 97
e 290 195
e 290 274
e 290 367
e 291 26
e 291 229
e 291 264
e 291 428
e 292 32
e 292 226
e 292 370
e 292 422
e 293 124
e 293 174
e 293 415
e 293 446
e 294 74
e 294 121
e 294 243
e 294 477
e 295 108
e 295 186
e 295 273
e 295 297
e 296 27
e 296 161
e 296 344
e 296 375
e 297 244
e 297 313
e 297 337
e 297 427
e 298 21
e 298 27
e 298 202
e 298 333
e 299 30
e 299 136
e 299 163
e 299 266
e 300 98
e 300 308
e 300 330
e 300 395
e 301 56
e 301 67
e 301 227
e 301 251
e 302 130
e 302 273
e 302 281
e 302 330
e 303 25
e 303 91
e 303 277
e 303 355
e 304 260
e 304 267
e 304 273
e 304 376
e 305 356
e 305 411
e 305 425
e 305 458
e 306 177
e 306 261
e 306 321
e 306 382
e 307 10
e 307 50
e 307 200
e 307 449
e 308 53
e 308 251
e 308 385
e 308 388
e 309 215
e 309 262
e 309 389
e 309 395
e 310 6
e 310 116
e 310 296
e 310 394
e 311 109
e 311 343
e 311 424
e 311 450
e 312 145
e 312 232
e 312 250
e 312 344
e 313 46
e 313 167
e 313 235
e 313 340
e 314 132
e 314 190
e 314 315
e 314 414
e 315 39
e 315 130
e 315 270
e 315 289
e 316 24
e 316 63
e 316 201
e 316 232
e 317 204
e 317 262
e 317 281
e 317 377
e 318 154
e 318 258
e 318 314
e 318 403
e 319 166
e 319 311
e 319 334
e 319 400
e 320 19
e 320 80
e 320 189
e 320 314
e 321 68
e 321 132
e 321 155
e 321 173
e 322 129
e 322 149
e 322 276
e 322 282
e 323 63
e 323 145
e 323 322
e 323 383
e 324 34
e 324 311
e 324 383
e 324 475
e 325 245
e 325 294
e 325 304
e 325 427
e 326 24
e 326 45
e 326 405
e 326 440
e 327 197
e 327 272
e 327 330
e 327 467
e 328 11
e 328 119
e 328 249
e 328 402
e 329 87
e 329 302
e 329 333
e 329 434
e 330 10
e 330 38
e 330 125
e 330 226
e 331 13
e 331 105
e 331 411
e 331 456
e 332 85
e 332 161
e 332 237
e 332 386
e 333 51
e 333 187
e 333 232
e 333 416
e 334 16
e 334 233
e 334 425
e 334 449
e 335 144
e 335 206
e 335 328
e 335 349
e 336 13
e 336 39
e 336 169
e 336 274
e 337 57
e 337 159
e 337 260
e 337 311
e 338 9
e 338 125
e 338 232
e 338 380
e 339 50
e 339 190
e 339 206
e 339 243
e 340 227
e 340 303
e 340 343
e 340 416
e 341 81
e 341 204
e 341 233
e 341 297
e 342 109
e 342 189
e 342 213
e 342 310
e 343 31
e 343 56
e 343 342
e 343 420
e 344 46
e 344 136
e 344 277
e 344 365
e 345 4
e 345 84
e 345 118
e 345 375
e 346 96
e 346 222
e 346 261
e 346 277
e 347 24
e 347 139
e 347 300
e 347 409
e 348 2
e 348 148
e 348 308
e 348 362
e 349 105
e 349 262
e 349 385
e 349 447
e 350 166
e 350 198
e 350 207
e 350 255
e 351 14
e 351 264
e 351 311
e 351 404
e 352 19
e 352 195
e 352 379
e 352 467
e 353 61
e 353 311
e 353 409
e 353 448
e 354 67
e 354 122
e 354 205
e 354 350
e 355 2
e 355 5
e 355 150
e 355 194
e 356 9
e 356 117
e 356 181
e 356 455
e 357 27
e 357 140
e 357 146
e 357 157
e 358 19
e 358 85
e 358 91
e 358 287
e 359 141
e 359 265
e 359 420
e 359 475
e 360 43
e 360 137
e 360 160
e 360 169
e 361 23
e 361 190
e 361 248
e 361 423
e 362 78
e 362 217
e 362 282
e 362 357
e 363 17
e 363 249
e 363 405
e 363 449
e 364 118
e 364 222
e 364 279
e 364 394
e 365 108
e 365 287
e 365 345
e 365 475
e 366 3
e 366 261
e 366 354
e 366 471
e 367 13
e 367 103
e 367 159
e 367 278
e 368 168
e 368 171
e 368 244
e 368 291
e 369 110
e 369 162
e 369 266
e 369 380
e 370 119
e 370 316
e 370 321
e 370 420
e 371 136
e 371 141
e 371 187
e 371 322
e 372 77
e 372 229
e 372 265
e 372 417
e 373 185
e 373 233
e 373 246
e 373 336
e 374 168
e 374 174
e 374 339
e 374 383
e 375 41
e 375 119
e 375 145
e 375 168
e 376 42
e 376 119
e 376 278
e 376 356
e 377 75
e 377 201
e 377 229
e 377 338
e 378 115
e 378 133
e 378 241
e 378 316
e 379 215
e 379 276
e 379 276
e 379 283
e 380 154
e 380 233
e 380 392
e 380 469
e 381 124
e 381 213
e 381 225
e 381 382
e 382 42
e 382 60
e 382 210
e 382 477
e 383 101
e 383 116
e 383 143
e 383 410
e 384 93
e 384 289
e 384 355
e 384 388
e 385 118
e 385 329
e 385 345
e 385 480
e 386 134
e 386 179
e 386 220
e 386 370
e 387 200
e 387 320
e 387 411
e 387 442
e 388 80
e 388 277
e 388 358
e 388 448
e 389 234
e 389 363
e 389 451
e 389 472
e 390 17
e 390 139
e 390 352
e 390 389
e 391 121
e 391 127
e 391 298
e 391 399
e 392 214
e 392 250
e 392 440
e 392 469
e 393 181
e 393 275
e 393 441
e 393 454
e 394 33
e 394 296
e 394 315
e 394 361
e 395 51
e 395 85
e 395 350
e 395 457
e 396 4
e 396 131
e 396 270
e 396 305
e 397 66
e 397 109
e 397 378
e 397 414
e 398 28
e 398 60
e 398 127
e 398 163
e 399 154
e 399 165
e 399 304
e 399 374
e 400 59
e 400 181
e 400 293
e 400 476
e 401 99
e 401 291
e 401 324
e 401 447
e 402 61
e 402 294
e 402 411
e 402 439
e 403 87
e 403 241
e 403 384
e 403 427
e 404 137
e 404 236
e 404 259
e 404 409
e 405 6
e 405 299
e 405 385
e 405 445
e 406 15
e 406 83
e 406 209
e 406 361
e 407 92
e 407 156
e 407 167
e 407 274
e 408 136
e 408 201
e 408 301
e 408 329
e 409 75
e 409 195
e 409 355
e 409 477
e 410 39
e 410 55
e 410 140
e 410 231
e 411 170
e 411 329
e 411 373
e 411 382
e 412 78
e 412 261
e 412 312
e 412 331
e 413 87
e 413 149
e 413 361
e 413 374
e 414 223
e 414 302
e 414 319
e 414 407
e 415 101
e 415 206
e 415 249
e 415 371
e 416 194
e 416 257
e 416 286
e 416 333
e 417 19
e 417 79
e 417 412
e 417 468
e 418 67
e 418 220
e 418 252
e 418 392
e 419 94
e 419 120
e 419 133
e 419 227
e 420 4
e 420 46
e 420 177
e 420 363
e 421 165
e 421 332
e 421 332
e 421 418
e 422 66
e 422 113
e 422 140
e 422 254
e 423 6
e 423 123
e 423 160
e 423 249
e 424 70
e 424 86
e 424 307
e 424 336
e 425 195
e 425 328
e 425 384
e 425 430
e 426 50
e 426 189
e 426 268
e 426 456
e 427 96
e 427 139
e 427 255
e 427 387
e 428 186
e 428 273
e 428 325
e 428 390
e 429 12
e 429 381
e 429 390
e 429 457
e 430 211
e 430 356
e 430 426
e 430 457
e 431 235
e 431 247
e 431 370
e 431 460
e 432 184
e 432 212
e 432 246
e 432 313
e 433 168
e 433 173
e 433 285
e 433 405
e 434 288
e 434 351
e 434 362
e 434 430
e 435 81
e 435 126
e 435 238
e 435 245
e 436 56
e 436 159
e 436 314
e 436 433
e 437 384
e 437 413
e 437 442
e 437 452
e 438 62
e 438 78
e 438 158
e 438 234
e 439 6
e 439 6
e 439 234
e 439 441
e 440 216
e 440 290
e 440 295
e 440 432
e 441 58
e 441 116
e 441 269
e 441 335
e 442 5
e 442 39
e 442 304
e 442 452
e 443 100
e 443 139
e 443 158
e 443 471
e 444 183
e 444 241
e 444 279
e 444 462
e 445 62
e 445 388
e 445 402
e 445 405
e 446 44
e 446 50
e 446 118
e 446 418
e 447 20
e 447 351
e 447 363
e 447 431
e 448 109
e 448 207
e 448 220
e 448 300
e 449 114
e 449 260
e 449 312
e 449 452
e 450 6
e 450 317
e 450 330
e 450 421
e 451 56
e 451 140
e 451 166
e 451 210
e 452 53
e 452 94
e 452 198
e 452 270
e 453 64
e 453 84
e 453 143
e 453 373
e 454 118
e 454 234
e 454 242
e 454 472
e 455 43
e 455 141
e 455 411
e 455 453
e 456 35
e 456 79
e 456 277
e 456 444
e 457 24
e 457 199
e 457 301
e 457 423
e 458 199
e 458 405
e 458 454
e 458 472
e 459 82
e 459 108
e 459 123
e 459 312
e 460 64
e 460 174
e 460 196
e 460 424
e 461 84
e 461 152
e 461 273
e 461 397
e 462 47
e 462 153
e 462 197
e 462 452
e 463 45
e 463 65
e 463 230
e 463 260
e 464 148
e 464 250
e 464 309
e 464 388
e 465 258
e 465 292
e 465 361
e 465 382
e 466 255
e 466 267
e 466 394
e 466 461
e 467 290
e 467 318
e 467 325
e 467 472
e 468 135
e 468 164
e 468 249
e 468 413
e 469 66
e 469 155
e 469 217
e 469 228
e 470 172
e 470 176
e 470 278
e 470 412
e 471 29
e 471 127
e 471 200
e 471 341
e 472 5
e 472 151
e 472 171
e 472 323
e 473 67
e 473 107
e 473 201
e 473 388
e 474 126
e 474 311
e 474 333
e 474 454
e 475 102
e 475 206
e 475 341
e 475 379
e 476 55
e 476 265
e 476 293
e 476 344
e 477 25
e 477 156
e 477 391
e 477 462
e 478 160
e 478 236
e 478 320
e 478 345
e 479 17
e 479 346
e 479 356
e 479 376
e 480 15
e 480 104
e 480 179
e 480 325
